
Gurobi 9.1.1 (linux64) logging started Tue Oct 19 12:01:44 2021

Changed value of parameter LogFile to results/max2cut_numv160/max2cut_numv160_i160-134_peel_decompose_weighted_BQO_log.txt
   Prev:   Default: 
Gurobi Optimizer version 9.1.1 build v9.1.1rc0 (linux64)
Thread count: 20 physical cores, 40 logical processors, using up to 10 threads
Optimize a model with 143 rows, 286 columns and 286 nonzeros
Model fingerprint: 0x36e60adb
Model has 892 quadratic objective terms
Variable types: 0 continuous, 286 integer (286 binary)
Coefficient statistics:
  Matrix range     [1e+00, 1e+00]
  Objective range  [7e+01, 7e+01]
  QObjective range [1e+02, 6e+02]
  Bounds range     [1e+00, 1e+00]
  RHS range        [1e+00, 1e+00]
Found heuristic solution: objective 0.0000000
Presolve removed 143 rows and 144 columns
Presolve time: 0.00s
Presolved: 290 rows, 432 columns, 870 nonzeros
Variable types: 0 continuous, 432 integer (432 binary)
Found heuristic solution: objective 21805.000000

Root relaxation: objective -3.414550e+04, 108 iterations, 0.00 seconds

    Nodes    |    Current Node    |     Objective Bounds      |     Work
 Expl Unexpl |  Obj  Depth IntInf | Incumbent    BestBd   Gap | It/Node Time

     0     0 34145.5000    0  140 21805.0000 34145.5000  56.6%     -    0s
H    0     0                    27758.000000 34145.5000  23.0%     -    0s
H    0     0                    28421.000000 32872.5000  15.7%     -    0s
     0     0 32542.5000    0  157 28421.0000 32542.5000  14.5%     -    0s
     0     0 32233.5000    0  168 28421.0000 32233.5000  13.4%     -    0s
     0     0 32233.5000    0  168 28421.0000 32233.5000  13.4%     -    0s
     0     2 32233.5000    0  168 28421.0000 32233.5000  13.4%     -    0s
H   77    96                    28424.000000 31154.0000  9.60%  49.3    0s
*  143   144              15    29329.000000 31154.0000  6.22%  40.4    0s
H  154   144                    29331.000000 31154.0000  6.22%  38.7    0s
*  242   186              18    29375.000000 31108.5000  5.90%  34.8    0s
*  328   241              14    29482.000000 31057.0000  5.34%  31.7    0s
H  397   271                    29583.000000 31057.0000  4.98%  28.8    0s
H  481   317                    29593.000000 30985.1818  4.70%  28.9    0s
H  501   317                    29709.000000 30985.1818  4.30%  28.8    0s
* 2405   307              17    29804.000000 30191.2500  1.30%  23.4    0s
* 2705    33              17    29808.000000 30113.5000  1.02%  22.7    0s
* 2879    33              17    29809.000000 30092.0000  0.95%  22.0    0s
* 2880    33              17    29817.000000 30092.0000  0.92%  22.0    0s

Cutting planes:
  Gomory: 26
  MIR: 4
  Zero half: 81

Explored 3046 nodes (65682 simplex iterations) in 0.50 seconds
Thread count was 10 (of 40 available processors)

Solution count 10: 29817 29809 29808 ... 29331

Optimal solution found (tolerance 0.00e+00)
Best objective 2.981700000000e+04, best bound 2.981700000000e+04, gap 0.0000%
